1376
0	42	138	281	288	375	384	472	583	672
36	52	147	214	277	364	388	450	551	643
52	117	198	214	281	364	412	461	643	696
117	167	198	204	277	375	499	592	622	656
167	384	450	505	648	716	797	961	1036	1176
0	42	266	271	412	463	493	592	716	797
271	309	377	736	813	872	961	1034	1102	1145
309	328	339	388	461	813	820	872	945	1013
328	429	505	820	907	1087	1176	1250	1279	1353
411	455	527	622	672	737	806	887	945	1034
